peakDumbCharging = 11100; 
Machine = anon_enum(16); 
machineSpeed = [3700,3700,3700,3700,3700,3700,3700,3700,3700,3700,3700,3700,3700,3700,3700,3700]; 
machineLoad = [3700,3700,3700,3700,3700,3700,3700,3700,3700,3700,3700,3700,3700,3700,3700,3700]; 
Car = anon_enum(9); 
demandCar = [5240,6040,14160,4360,4920,15680,7880,9400,24360]; 
arrivalCar = [75,61,57,55,50,49,49,43,42]; 
departureCar = [79,68,62,58,53,60,55,47,51]; 
